N = 390;
M = 968;
Edge_Start = [1, 1, 2, 3, 3, 4, 5, 5, 6, 7, 7, 8, 9, 9, 10, 11, 11, 12, 13, 13, 14, 15, 15, 16, 17, 17, 18, 19, 20, 21, 22, 23, 23, 24, 25, 25, 26, 27, 29, 29, 30, 31, 32, 33, 33, 34, 35, 35, 36, 37, 37, 39, 39, 40, 41, 41, 43, 44, 45, 45, 47, 48, 49, 49, 51, 51, 53, 54, 55, 56, 56, 57, 58, 58, 59, 60, 60, 61, 62, 62, 63, 64, 64, 65, 66, 66, 67, 68, 68, 69, 70, 70, 71, 72, 72, 73, 74, 75, 76, 76, 77, 78, 78, 79, 80, 80, 81, 82, 82, 84, 85, 86, 87, 87, 88, 89, 89, 90, 91, 91, 92, 93, 95, 95, 96, 97, 97, 99, 99, 100, 102, 103, 104, 105, 105, 106, 107, 107, 108, 109, 109, 110, 111, 112, 112, 113, 114, 114, 115, 117, 118, 118, 119, 120, 121, 122, 122, 124, 126, 127, 128, 128, 129, 130, 131, 132, 132, 134, 134, 135, 136, 136, 137, 138, 138, 140, 141, 141, 142, 143, 143, 144, 145, 145, 146, 147, 147, 149, 149, 150, 151, 151, 152, 153, 153, 155, 156, 157, 158, 159, 160, 161, 161, 163, 163, 164, 165, 165, 166, 167, 168, 168, 169, 170, 171, 172, 172, 173, 174, 175, 176, 176, 177, 178, 178, 179, 180, 181, 182, 182, 183, 184, 185, 186, 186, 187, 188, 188, 189, 190, 190, 191, 192, 192, 193, 194, 196, 197, 197, 198, 199, 200, 201, 201, 202, 203, 203, 204, 205, 205, 206, 207, 207, 208, 209, 210, 211, 211, 212, 213, 213, 214, 215, 217, 217, 218, 219, 219, 220, 221, 221, 222, 223, 224, 224, 225, 226, 226, 227, 228, 228, 230, 231, 232, 232, 234, 234, 235, 236, 236, 237, 238, 238, 239, 240, 240, 241, 242, 242, 243, 244, 244, 245, 246, 246, 247, 248, 248, 249, 250, 250, 252, 253, 254, 255, 256, 257, 257, 258, 259, 259, 260, 261, 261, 262, 263, 263, 264, 265, 267, 268, 269, 269, 270, 271, 271, 272, 273, 273, 274, 275, 275, 276, 277, 277, 278, 279, 280, 280, 282, 282, 283, 284, 284, 285, 286, 286, 287, 288, 288, 289, 290, 290, 291, 292, 293, 294, 294, 296, 296, 297, 298, 298, 300, 300, 301, 302, 303, 304, 304, 305, 306, 306, 308, 309, 309, 311, 312, 313, 313, 314, 315, 316, 317, 317, 318, 319, 319, 320, 321, 321, 322, 324, 325, 325, 326, 327, 328, 329, 329, 331, 331, 332, 333, 333, 334, 335, 336, 336, 338, 338, 339, 340, 340, 341, 342, 342, 343, 344, 345, 346, 347, 348, 348, 349, 350, 350, 351, 352, 354, 354, 355, 356, 356, 357, 358, 358, 359, 360, 360, 361, 362, 362, 364, 366, 367, 368, 371, 372, 373, 374, 375, 376, 377, 378, 379, 381, 382, 383, 384, 385, 387, 388, 389, 2, 28, 3, 4, 30, 5, 6, 32, 7, 8, 34, 9, 10, 36, 11, 12, 38, 13, 14, 40, 15, 16, 42, 17, 18, 44, 19, 20, 21, 48, 23, 24, 50, 25, 26, 52, 27, 54, 30, 57, 31, 59, 33, 34, 61, 35, 36, 63, 37, 38, 65, 40, 67, 41, 42, 69, 71, 45, 46, 73, 48, 49, 50, 77, 52, 79, 81, 55, 83, 57, 84, 58, 59, 86, 60, 61, 88, 62, 63, 90, 64, 65, 92, 66, 67, 94, 68, 69, 96, 70, 71, 98, 72, 73, 100, 74, 75, 76, 77, 104, 78, 79, 106, 80, 81, 108, 82, 83, 110, 85, 113, 87, 88, 115, 89, 90, 117, 91, 92, 119, 93, 94, 96, 123, 97, 98, 125, 100, 127, 101, 103, 104, 105, 106, 133, 107, 108, 135, 109, 110, 137, 111, 139, 113, 140, 114, 115, 142, 116, 118, 119, 146, 120, 121, 122, 123, 150, 152, 154, 128, 129, 156, 130, 131, 132, 133, 160, 135, 162, 136, 137, 164, 138, 139, 166, 141, 142, 169, 143, 144, 171, 145, 146, 173, 147, 148, 175, 150, 177, 151, 152, 179, 153, 154, 181, 156, 157, 158, 159, 160, 161, 162, 189, 164, 191, 165, 166, 193, 167, 195, 169, 196, 170, 171, 172, 173, 200, 174, 175, 176, 177, 204, 178, 179, 206, 180, 181, 182, 183, 210, 184, 212, 186, 187, 214, 188, 189, 216, 190, 191, 218, 192, 193, 220, 194, 195, 197, 198, 225, 199, 227, 201, 202, 229, 203, 204, 231, 205, 206, 233, 207, 208, 235, 209, 237, 211, 212, 239, 213, 214, 241, 215, 216, 218, 245, 219, 220, 247, 221, 222, 249, 223, 251, 225, 252, 226, 227, 254, 228, 229, 256, 258, 232, 233, 260, 235, 262, 236, 237, 264, 238, 239, 266, 240, 241, 268, 242, 243, 270, 244, 245, 272, 246, 247, 274, 248, 249, 276, 250, 251, 278, 253, 254, 255, 256, 257, 258, 285, 259, 260, 287, 261, 262, 289, 263, 264, 291, 265, 266, 268, 269, 270, 297, 271, 272, 299, 273, 274, 301, 275, 276, 303, 277, 278, 305, 279, 307, 281, 308, 283, 310, 284, 285, 312, 286, 287, 314, 288, 289, 316, 290, 291, 318, 292, 320, 294, 295, 322, 297, 324, 298, 299, 326, 301, 328, 302, 330, 304, 305, 332, 306, 307, 334, 309, 310, 337, 312, 313, 314, 341, 315, 343, 317, 318, 345, 319, 320, 347, 321, 322, 349, 323, 325, 326, 353, 327, 328, 329, 330, 357, 332, 359, 333, 334, 361, 335, 363, 337, 364, 339, 366, 340, 341, 368, 342, 343, 370, 344, 372, 346, 347, 348, 349, 376, 350, 351, 378, 352, 353, 355, 382, 356, 357, 384, 358, 359, 386, 360, 361, 388, 362, 363, 390, 365, 367, 368, 369, 372, 373, 374, 375, 376, 377, 378, 379, 380, 382, 383, 384, 385, 386, 388, 389, 390];
Edge_End = [2, 28, 3, 4, 30, 5, 6, 32, 7, 8, 34, 9, 10, 36, 11, 12, 38, 13, 14, 40, 15, 16, 42, 17, 18, 44, 19, 20, 21, 48, 23, 24, 50, 25, 26, 52, 27, 54, 30, 57, 31, 59, 33, 34, 61, 35, 36, 63, 37, 38, 65, 40, 67, 41, 42, 69, 71, 45, 46, 73, 48, 49, 50, 77, 52, 79, 81, 55, 83, 57, 84, 58, 59, 86, 60, 61, 88, 62, 63, 90, 64, 65, 92, 66, 67, 94, 68, 69, 96, 70, 71, 98, 72, 73, 100, 74, 75, 76, 77, 104, 78, 79, 106, 80, 81, 108, 82, 83, 110, 85, 113, 87, 88, 115, 89, 90, 117, 91, 92, 119, 93, 94, 96, 123, 97, 98, 125, 100, 127, 101, 103, 104, 105, 106, 133, 107, 108, 135, 109, 110, 137, 111, 139, 113, 140, 114, 115, 142, 116, 118, 119, 146, 120, 121, 122, 123, 150, 152, 154, 128, 129, 156, 130, 131, 132, 133, 160, 135, 162, 136, 137, 164, 138, 139, 166, 141, 142, 169, 143, 144, 171, 145, 146, 173, 147, 148, 175, 150, 177, 151, 152, 179, 153, 154, 181, 156, 157, 158, 159, 160, 161, 162, 189, 164, 191, 165, 166, 193, 167, 195, 169, 196, 170, 171, 172, 173, 200, 174, 175, 176, 177, 204, 178, 179, 206, 180, 181, 182, 183, 210, 184, 212, 186, 187, 214, 188, 189, 216, 190, 191, 218, 192, 193, 220, 194, 195, 197, 198, 225, 199, 227, 201, 202, 229, 203, 204, 231, 205, 206, 233, 207, 208, 235, 209, 237, 211, 212, 239, 213, 214, 241, 215, 216, 218, 245, 219, 220, 247, 221, 222, 249, 223, 251, 225, 252, 226, 227, 254, 228, 229, 256, 258, 232, 233, 260, 235, 262, 236, 237, 264, 238, 239, 266, 240, 241, 268, 242, 243, 270, 244, 245, 272, 246, 247, 274, 248, 249, 276, 250, 251, 278, 253, 254, 255, 256, 257, 258, 285, 259, 260, 287, 261, 262, 289, 263, 264, 291, 265, 266, 268, 269, 270, 297, 271, 272, 299, 273, 274, 301, 275, 276, 303, 277, 278, 305, 279, 307, 281, 308, 283, 310, 284, 285, 312, 286, 287, 314, 288, 289, 316, 290, 291, 318, 292, 320, 294, 295, 322, 297, 324, 298, 299, 326, 301, 328, 302, 330, 304, 305, 332, 306, 307, 334, 309, 310, 337, 312, 313, 314, 341, 315, 343, 317, 318, 345, 319, 320, 347, 321, 322, 349, 323, 325, 326, 353, 327, 328, 329, 330, 357, 332, 359, 333, 334, 361, 335, 363, 337, 364, 339, 366, 340, 341, 368, 342, 343, 370, 344, 372, 346, 347, 348, 349, 376, 350, 351, 378, 352, 353, 355, 382, 356, 357, 384, 358, 359, 386, 360, 361, 388, 362, 363, 390, 365, 367, 368, 369, 372, 373, 374, 375, 376, 377, 378, 379, 380, 382, 383, 384, 385, 386, 388, 389, 390, 1, 1, 2, 3, 3, 4, 5, 5, 6, 7, 7, 8, 9, 9, 10, 11, 11, 12, 13, 13, 14, 15, 15, 16, 17, 17, 18, 19, 20, 21, 22, 23, 23, 24, 25, 25, 26, 27, 29, 29, 30, 31, 32, 33, 33, 34, 35, 35, 36, 37, 37, 39, 39, 40, 41, 41, 43, 44, 45, 45, 47, 48, 49, 49, 51, 51, 53, 54, 55, 56, 56, 57, 58, 58, 59, 60, 60, 61, 62, 62, 63, 64, 64, 65, 66, 66, 67, 68, 68, 69, 70, 70, 71, 72, 72, 73, 74, 75, 76, 76, 77, 78, 78, 79, 80, 80, 81, 82, 82, 84, 85, 86, 87, 87, 88, 89, 89, 90, 91, 91, 92, 93, 95, 95, 96, 97, 97, 99, 99, 100, 102, 103, 104, 105, 105, 106, 107, 107, 108, 109, 109, 110, 111, 112, 112, 113, 114, 114, 115, 117, 118, 118, 119, 120, 121, 122, 122, 124, 126, 127, 128, 128, 129, 130, 131, 132, 132, 134, 134, 135, 136, 136, 137, 138, 138, 140, 141, 141, 142, 143, 143, 144, 145, 145, 146, 147, 147, 149, 149, 150, 151, 151, 152, 153, 153, 155, 156, 157, 158, 159, 160, 161, 161, 163, 163, 164, 165, 165, 166, 167, 168, 168, 169, 170, 171, 172, 172, 173, 174, 175, 176, 176, 177, 178, 178, 179, 180, 181, 182, 182, 183, 184, 185, 186, 186, 187, 188, 188, 189, 190, 190, 191, 192, 192, 193, 194, 196, 197, 197, 198, 199, 200, 201, 201, 202, 203, 203, 204, 205, 205, 206, 207, 207, 208, 209, 210, 211, 211, 212, 213, 213, 214, 215, 217, 217, 218, 219, 219, 220, 221, 221, 222, 223, 224, 224, 225, 226, 226, 227, 228, 228, 230, 231, 232, 232, 234, 234, 235, 236, 236, 237, 238, 238, 239, 240, 240, 241, 242, 242, 243, 244, 244, 245, 246, 246, 247, 248, 248, 249, 250, 250, 252, 253, 254, 255, 256, 257, 257, 258, 259, 259, 260, 261, 261, 262, 263, 263, 264, 265, 267, 268, 269, 269, 270, 271, 271, 272, 273, 273, 274, 275, 275, 276, 277, 277, 278, 279, 280, 280, 282, 282, 283, 284, 284, 285, 286, 286, 287, 288, 288, 289, 290, 290, 291, 292, 293, 294, 294, 296, 296, 297, 298, 298, 300, 300, 301, 302, 303, 304, 304, 305, 306, 306, 308, 309, 309, 311, 312, 313, 313, 314, 315, 316, 317, 317, 318, 319, 319, 320, 321, 321, 322, 324, 325, 325, 326, 327, 328, 329, 329, 331, 331, 332, 333, 333, 334, 335, 336, 336, 338, 338, 339, 340, 340, 341, 342, 342, 343, 344, 345, 346, 347, 348, 348, 349, 350, 350, 351, 352, 354, 354, 355, 356, 356, 357, 358, 358, 359, 360, 360, 361, 362, 362, 364, 366, 367, 368, 371, 372, 373, 374, 375, 376, 377, 378, 379, 381, 382, 383, 384, 385, 387, 388, 389];
L = [13, 2, 8, 14, 7, 18, 10, 18, 11, 16, 13, 1, 6, 6, 18, 6, 10, 3, 15, 14, 13, 17, 10, 5, 1, 14, 2, 11, 3, 16, 4, 12, 15, 3, 1, 3, 3, 3, 10, 5, 9, 2, 1, 5, 10, 4, 14, 5, 7, 8, 15, 7, 11, 6, 19, 19, 10, 19, 1, 17, 9, 5, 17, 4, 11, 15, 4, 9, 1, 3, 14, 11, 7, 15, 11, 8, 17, 11, 7, 10, 18, 6, 4, 11, 2, 1, 6, 5, 15, 3, 3, 7, 14, 12, 16, 5, 11, 5, 15, 11, 2, 1, 5, 4, 15, 5, 18, 1, 16, 16, 16, 3, 6, 14, 13, 5, 8, 5, 4, 14, 7, 11, 15, 13, 18, 3, 12, 16, 18, 10, 1, 6, 10, 13, 16, 10, 18, 11, 17, 5, 17, 11, 13, 8, 7, 6, 6, 19, 5, 9, 3, 1, 4, 9, 4, 5, 11, 16, 12, 13, 15, 11, 16, 15, 13, 10, 17, 16, 19, 9, 4, 3, 15, 16, 14, 2, 16, 8, 15, 8, 18, 8, 14, 15, 12, 1, 5, 12, 15, 7, 2, 2, 3, 2, 18, 7, 3, 3, 2, 6, 3, 9, 5, 10, 19, 1, 9, 7, 16, 15, 3, 11, 15, 17, 1, 17, 1, 17, 18, 17, 9, 11, 1, 1, 18, 1, 14, 8, 12, 11, 17, 16, 5, 14, 13, 12, 14, 2, 15, 11, 19, 14, 5, 10, 14, 1, 15, 6, 5, 10, 8, 16, 5, 8, 3, 13, 11, 1, 9, 5, 8, 16, 13, 3, 17, 16, 5, 16, 19, 3, 16, 7, 1, 5, 5, 10, 13, 15, 11, 3, 4, 18, 19, 4, 8, 7, 18, 18, 9, 12, 5, 2, 6, 16, 5, 7, 7, 7, 1, 5, 16, 14, 13, 12, 15, 10, 2, 1, 19, 15, 1, 9, 15, 4, 17, 11, 10, 5, 8, 14, 10, 4, 6, 18, 3, 11, 12, 5, 5, 4, 6, 11, 3, 12, 13, 8, 13, 12, 17, 12, 6, 6, 3, 19, 3, 18, 7, 10, 8, 15, 10, 14, 5, 1, 10, 2, 9, 3, 4, 4, 11, 1, 18, 3, 2, 14, 9, 9, 10, 13, 5, 9, 4, 13, 3, 12, 12, 12, 12, 10, 17, 19, 13, 14, 16, 6, 19, 2, 12, 10, 15, 15, 15, 10, 18, 12, 12, 10, 7, 12, 18, 8, 7, 15, 6, 2, 2, 5, 11, 13, 1, 2, 2, 9, 7, 18, 1, 10, 14, 12, 4, 6, 5, 9, 14, 18, 8, 6, 10, 6, 3, 1, 18, 19, 9, 3, 19, 15, 8, 10, 15, 12, 13, 4, 2, 18, 3, 14, 2, 11, 10, 2, 18, 18, 6, 6, 2, 12, 17, 3, 15, 4, 16, 4, 9, 4, 13, 3, 4, 1, 17, 10, 18, 9, 13, 5, 6, 6, 1, 6, 16, 2, 1, 15, 13, 2, 8, 14, 7, 18, 10, 18, 11, 16, 13, 1, 6, 6, 18, 6, 10, 3, 15, 14, 13, 17, 10, 5, 1, 14, 2, 11, 3, 16, 4, 12, 15, 3, 1, 3, 3, 3, 10, 5, 9, 2, 1, 5, 10, 4, 14, 5, 7, 8, 15, 7, 11, 6, 19, 19, 10, 19, 1, 17, 9, 5, 17, 4, 11, 15, 4, 9, 1, 3, 14, 11, 7, 15, 11, 8, 17, 11, 7, 10, 18, 6, 4, 11, 2, 1, 6, 5, 15, 3, 3, 7, 14, 12, 16, 5, 11, 5, 15, 11, 2, 1, 5, 4, 15, 5, 18, 1, 16, 16, 16, 3, 6, 14, 13, 5, 8, 5, 4, 14, 7, 11, 15, 13, 18, 3, 12, 16, 18, 10, 1, 6, 10, 13, 16, 10, 18, 11, 17, 5, 17, 11, 13, 8, 7, 6, 6, 19, 5, 9, 3, 1, 4, 9, 4, 5, 11, 16, 12, 13, 15, 11, 16, 15, 13, 10, 17, 16, 19, 9, 4, 3, 15, 16, 14, 2, 16, 8, 15, 8, 18, 8, 14, 15, 12, 1, 5, 12, 15, 7, 2, 2, 3, 2, 18, 7, 3, 3, 2, 6, 3, 9, 5, 10, 19, 1, 9, 7, 16, 15, 3, 11, 15, 17, 1, 17, 1, 17, 18, 17, 9, 11, 1, 1, 18, 1, 14, 8, 12, 11, 17, 16, 5, 14, 13, 12, 14, 2, 15, 11, 19, 14, 5, 10, 14, 1, 15, 6, 5, 10, 8, 16, 5, 8, 3, 13, 11, 1, 9, 5, 8, 16, 13, 3, 17, 16, 5, 16, 19, 3, 16, 7, 1, 5, 5, 10, 13, 15, 11, 3, 4, 18, 19, 4, 8, 7, 18, 18, 9, 12, 5, 2, 6, 16, 5, 7, 7, 7, 1, 5, 16, 14, 13, 12, 15, 10, 2, 1, 19, 15, 1, 9, 15, 4, 17, 11, 10, 5, 8, 14, 10, 4, 6, 18, 3, 11, 12, 5, 5, 4, 6, 11, 3, 12, 13, 8, 13, 12, 17, 12, 6, 6, 3, 19, 3, 18, 7, 10, 8, 15, 10, 14, 5, 1, 10, 2, 9, 3, 4, 4, 11, 1, 18, 3, 2, 14, 9, 9, 10, 13, 5, 9, 4, 13, 3, 12, 12, 12, 12, 10, 17, 19, 13, 14, 16, 6, 19, 2, 12, 10, 15, 15, 15, 10, 18, 12, 12, 10, 7, 12, 18, 8, 7, 15, 6, 2, 2, 5, 11, 13, 1, 2, 2, 9, 7, 18, 1, 10, 14, 12, 4, 6, 5, 9, 14, 18, 8, 6, 10, 6, 3, 1, 18, 19, 9, 3, 19, 15, 8, 10, 15, 12, 13, 4, 2, 18, 3, 14, 2, 11, 10, 2, 18, 18, 6, 6, 2, 12, 17, 3, 15, 4, 16, 4, 9, 4, 13, 3, 4, 1, 17, 10, 18, 9, 13, 5, 6, 6, 1, 6, 16, 2, 1, 15];
T = [13, 1, 5, 17, 11, 14, 18, 23, 12, 4, 9, 8, 6, 12, 16, 9, 12, 5, 9, 19, 20, 9, 5, 1, 1, 19, 1, 13, 1, 13, 6, 16, 21, 3, 1, 1, 1, 1, 23, 1, 10, 1, 1, 1, 8, 9, 18, 6, 5, 11, 18, 8, 19, 3, 24, 20, 5, 22, 1, 15, 8, 16, 17, 12, 1, 16, 1, 1, 1, 1, 11, 4, 7, 16, 5, 8, 30, 16, 12, 12, 16, 6, 5, 8, 6, 2, 11, 1, 14, 5, 3, 5, 10, 10, 14, 1, 17, 5, 20, 10, 1, 7, 2, 13, 15, 4, 16, 1, 6, 18, 13, 1, 9, 12, 3, 3, 20, 2, 5, 11, 10, 14, 9, 9, 16, 3, 7, 10, 19, 7, 1, 6, 11, 8, 14, 12, 17, 13, 15, 1, 26, 6, 12, 10, 4, 7, 1, 12, 2, 6, 1, 1, 9, 15, 9, 12, 22, 15, 9, 23, 20, 15, 17, 14, 17, 7, 20, 13, 13, 19, 4, 5, 24, 14, 15, 1, 14, 4, 8, 2, 19, 5, 21, 16, 9, 1, 1, 11, 17, 7, 1, 1, 8, 1, 18, 11, 9, 9, 1, 7, 1, 2, 2, 7, 20, 7, 7, 6, 11, 14, 2, 11, 5, 20, 1, 21, 3, 19, 17, 12, 7, 6, 4, 1, 9, 1, 20, 6, 13, 15, 6, 5, 9, 18, 6, 9, 4, 4, 13, 12, 16, 14, 1, 4, 18, 1, 16, 7, 1, 2, 10, 14, 12, 10, 2, 14, 14, 12, 1, 3, 6, 17, 14, 1, 15, 1, 7, 13, 13, 7, 11, 5, 2, 6, 9, 6, 6, 18, 10, 2, 5, 15, 9, 1, 1, 11, 20, 19, 13, 14, 2, 1, 11, 13, 1, 1, 7, 1, 1, 8, 12, 12, 18, 4, 23, 1, 5, 1, 25, 14, 1, 9, 15, 1, 14, 8, 13, 1, 6, 15, 14, 1, 9, 20, 1, 15, 6, 4, 4, 1, 1, 10, 2, 5, 7, 11, 7, 12, 13, 8, 1, 4, 7, 21, 10, 16, 16, 5, 3, 20, 10, 19, 1, 2, 9, 3, 18, 1, 1, 1, 10, 1, 21, 5, 1, 10, 11, 9, 8, 16, 9, 4, 5, 10, 1, 16, 23, 8, 14, 8, 16, 24, 8, 12, 16, 10, 15, 7, 10, 9, 23, 16, 15, 6, 25, 15, 13, 1, 15, 16, 26, 2, 11, 16, 10, 1, 1, 1, 8, 13, 1, 7, 1, 4, 1, 15, 1, 1, 7, 15, 7, 9, 5, 12, 12, 12, 2, 17, 15, 1, 6, 1, 8, 25, 6, 5, 20, 16, 9, 12, 14, 13, 14, 2, 7, 20, 7, 24, 1, 13, 4, 10, 18, 20, 3, 2, 4, 16, 13, 1, 8, 5, 14, 10, 10, 13, 7, 3, 2, 1, 16, 4, 20, 14, 16, 4, 5, 5, 8, 2, 20, 15, 6, 21, 13, 1, 5, 17, 11, 14, 18, 23, 12, 4, 9, 8, 6, 12, 16, 9, 12, 5, 9, 19, 20, 9, 5, 1, 1, 19, 1, 13, 1, 13, 6, 16, 21, 3, 1, 1, 1, 1, 23, 1, 10, 1, 1, 1, 8, 9, 18, 6, 5, 11, 18, 8, 19, 3, 24, 20, 5, 22, 1, 15, 8, 16, 17, 12, 1, 16, 1, 1, 1, 1, 11, 4, 7, 16, 5, 8, 30, 16, 12, 12, 16, 6, 5, 8, 6, 2, 11, 1, 14, 5, 3, 5, 10, 10, 14, 1, 17, 5, 20, 10, 1, 7, 2, 13, 15, 4, 16, 1, 6, 18, 13, 1, 9, 12, 3, 3, 20, 2, 5, 11, 10, 14, 9, 9, 16, 3, 7, 10, 19, 7, 1, 6, 11, 8, 14, 12, 17, 13, 15, 1, 26, 6, 12, 10, 4, 7, 1, 12, 2, 6, 1, 1, 9, 15, 9, 12, 22, 15, 9, 23, 20, 15, 17, 14, 17, 7, 20, 13, 13, 19, 4, 5, 24, 14, 15, 1, 14, 4, 8, 2, 19, 5, 21, 16, 9, 1, 1, 11, 17, 7, 1, 1, 8, 1, 18, 11, 9, 9, 1, 7, 1, 2, 2, 7, 20, 7, 7, 6, 11, 14, 2, 11, 5, 20, 1, 21, 3, 19, 17, 12, 7, 6, 4, 1, 9, 1, 20, 6, 13, 15, 6, 5, 9, 18, 6, 9, 4, 4, 13, 12, 16, 14, 1, 4, 18, 1, 16, 7, 1, 2, 10, 14, 12, 10, 2, 14, 14, 12, 1, 3, 6, 17, 14, 1, 15, 1, 7, 13, 13, 7, 11, 5, 2, 6, 9, 6, 6, 18, 10, 2, 5, 15, 9, 1, 1, 11, 20, 19, 13, 14, 2, 1, 11, 13, 1, 1, 7, 1, 1, 8, 12, 12, 18, 4, 23, 1, 5, 1, 25, 14, 1, 9, 15, 1, 14, 8, 13, 1, 6, 15, 14, 1, 9, 20, 1, 15, 6, 4, 4, 1, 1, 10, 2, 5, 7, 11, 7, 12, 13, 8, 1, 4, 7, 21, 10, 16, 16, 5, 3, 20, 10, 19, 1, 2, 9, 3, 18, 1, 1, 1, 10, 1, 21, 5, 1, 10, 11, 9, 8, 16, 9, 4, 5, 10, 1, 16, 23, 8, 14, 8, 16, 24, 8, 12, 16, 10, 15, 7, 10, 9, 23, 16, 15, 6, 25, 15, 13, 1, 15, 16, 26, 2, 11, 16, 10, 1, 1, 1, 8, 13, 1, 7, 1, 4, 1, 15, 1, 1, 7, 15, 7, 9, 5, 12, 12, 12, 2, 17, 15, 1, 6, 1, 8, 25, 6, 5, 20, 16, 9, 12, 14, 13, 14, 2, 7, 20, 7, 24, 1, 13, 4, 10, 18, 20, 3, 2, 4, 16, 13, 1, 8, 5, 14, 10, 10, 13, 7, 3, 2, 1, 16, 4, 20, 14, 16, 4, 5, 5, 8, 2, 20, 15, 6, 21];
Lower_Bound = [0, 13, 18, 35, 49, 67, 71, 75, 83, 89, 105, 114, 119, 128, 148, 157, 158, 159, 160, 173, 174, 245, 239, 223, 220, 221, 222, 1, 52, 29, 39, 62, 61, 62, 71, 89, 94, 105, 130, 138, 141, 153, 136, 177, 166, 167, 195, 187, 203, 220, 218, 219, 231, 223, 224, 52, 51, 47, 40, 45, 53, 69, 77, 91, 97, 105, 111, 122, 123, 128, 131, 141, 151, 152, 169, 174, 194, 195, 202, 215, 230, 226, 225, 63, 81, 63, 64, 73, 76, 79, 81, 86, 96, 107, 145, 136, 136, 133, 165, 155, 162, 191, 190, 184, 195, 197, 209, 219, 233, 232, 238, 94, 84, 77, 76, 78, 96, 93, 92, 101, 116, 125, 137, 145, 143, 148, 184, 207, 227, 244, 233, 216, 209, 230, 222, 241, 245, 264, 250, 98, 99, 89, 97, 99, 104, 94, 103, 104, 140, 136, 129, 130, 138, 139, 233, 222, 231, 224, 223, 216, 215, 217, 253, 246, 253, 260, 271, 105, 103, 108, 116, 117, 120, 121, 104, 116, 123, 127, 128, 129, 149, 155, 168, 174, 213, 204, 218, 209, 213, 226, 238, 252, 253, 271, 272, 116, 132, 139, 141, 120, 134, 138, 136, 122, 134, 135, 141, 158, 159, 170, 171, 178, 191, 198, 203, 205, 232, 238, 244, 250, 260, 262, 277, 134, 133, 144, 151, 158, 144, 157, 150, 150, 137, 156, 155, 156, 157, 169, 181, 185, 202, 207, 208, 222, 223, 238, 239, 247, 260, 265, 280, 135, 136, 145, 161, 160, 162, 156, 152, 151, 161, 163, 170, 164, 176, 187, 194, 186, 187, 191, 212, 222, 238, 243, 258, 248, 249, 251, 254, 229, 230, 187, 186, 185, 164, 163, 153, 162, 166, 175, 177, 183, 227, 211, 234, 208, 194, 210, 228, 250, 241, 251, 275, 268, 258, 281, 272, 228, 222, 197, 203, 190, 189, 174, 200, 178, 189, 180, 181, 182, 190, 203, 210, 216, 217, 218, 233, 234, 235, 242, 264, 271, 276, 288, 299, 254, 237, 215, 214, 213, 205, 207, 202, 218, 199, 196, 182, 195, 191, 198, 218, 219, 218, 291, 278, 268, 250, 253, 255, 271, 284, 292, 297, 269, 279, 221, 231, 238, 245, 227, 223, 220, 218, 217, 201, 197, 217, 205, 221, 225, 297, 292, 287, 279, 277, 257, 287, 272, 278, 299];
Upper_Bound = [0, 13, 18, 35, 49, 67, 71, 75, 83, 89, 105, 114, 119, 128, 148, 157, 158, 159, 160, 173, 174, 245, 239, 223, 220, 221, 222, 1, 52, 29, 39, 62, 61, 62, 71, 89, 94, 105, 130, 138, 141, 153, 136, 177, 166, 167, 195, 187, 203, 220, 218, 219, 231, 223, 224, 52, 51, 47, 40, 45, 53, 69, 77, 91, 97, 105, 111, 122, 123, 128, 131, 141, 151, 152, 169, 174, 194, 195, 202, 215, 230, 226, 225, 63, 81, 63, 64, 73, 76, 79, 81, 86, 96, 107, 145, 136, 136, 133, 165, 155, 162, 191, 190, 184, 195, 197, 209, 219, 233, 232, 238, 94, 84, 77, 76, 78, 96, 93, 92, 101, 116, 125, 137, 145, 143, 148, 184, 207, 227, 244, 233, 216, 209, 230, 222, 241, 245, 264, 250, 98, 99, 89, 97, 99, 104, 94, 103, 104, 140, 136, 129, 130, 138, 139, 233, 222, 231, 224, 223, 216, 215, 217, 253, 246, 253, 260, 271, 105, 103, 108, 116, 117, 120, 121, 104, 116, 123, 127, 128, 129, 149, 155, 168, 174, 213, 204, 218, 209, 213, 226, 238, 252, 253, 271, 272, 116, 132, 139, 141, 120, 134, 138, 136, 122, 134, 135, 141, 158, 159, 170, 171, 178, 191, 198, 203, 205, 232, 238, 244, 250, 260, 262, 277, 134, 133, 144, 151, 158, 144, 157, 150, 150, 137, 156, 155, 156, 157, 169, 181, 185, 202, 207, 208, 222, 223, 238, 239, 247, 260, 265, 280, 135, 136, 145, 161, 160, 162, 156, 152, 151, 161, 163, 170, 164, 176, 187, 194, 186, 187, 191, 212, 222, 238, 243, 258, 248, 249, 251, 254, 229, 230, 187, 186, 185, 164, 163, 153, 162, 166, 175, 177, 183, 227, 211, 234, 208, 194, 210, 228, 250, 241, 251, 275, 268, 258, 281, 272, 228, 222, 197, 203, 190, 189, 174, 200, 178, 189, 180, 181, 182, 190, 203, 210, 216, 217, 218, 233, 234, 235, 242, 264, 271, 276, 288, 299, 254, 237, 215, 214, 213, 205, 207, 202, 218, 199, 196, 182, 195, 191, 198, 218, 219, 218, 291, 278, 268, 250, 253, 255, 271, 284, 292, 297, 269, 279, 221, 231, 238, 245, 227, 223, 220, 218, 217, 201, 197, 217, 205, 221, 225, 297, 292, 287, 279, 277, 257, 287, 272, 278, 299];
Start = 1;
End = 390;
Time = 299;
